p cnf 7230 16
212 -213 0
206 207 0
205 -207 0
-205 -206 0
-202 204 0
203 -204 0
-201 -203 0
-200 202 0
200 201 0
-208 -209 -210 -211 213 0
-198 199 0
198 -199 0
211 -213 0
210 -213 0
209 -213 0
208 -213 0
